64 64
35 5
56 16
49 2
30 21
14 2
8 31
54 8
27 25
17 15
52 15
53 29
34 13
2 10
62 17
24 18
48 25
15 5
11 3
20 14
58 27
32 22
64 4
40 28
43 12
22 11
12 14
36 16
10 22
41 10
39 12
51 30
1 7
7 3
23 32
33 26
16 17
45 18
21 24
4 23
28 13
25 4
5 9
61 19
31 28
13 24
18 7
46 8
50 6
42 9
29 1
9 1
63 23
26 27
19 30
55 6
60 21
6 20
38 19
44 31
47 29
3 32
37 11
59 26
57 20
